decision_x1=[0,7];
decision_x2=[0,7];
decision_x3=[0,7];
decision_x4=[0,7];
decision_x5=[0,7];
decision_x6=[0,7];
decision_x7=[0,7];
decision_x8=[0,7];
decision_x9=[0,7];
decision_x10=[0,7];
decision_x11=[0,7];
decision_x12=[0,7];
decision_x13=[0,7];
decision_x14=[0,7];
random_y1=[0,7];
random_y2=[0,7];
random_y3=[0,7];
random_y4=[0,7];
random_y5=[0,7];
random_y6=[0,7];
constraint_x2_x1=[
0,0,3|
0,1,2.5|
0,2,1.2|
0,3,9.7|
0,4,2.6|
0,5,2.2|
0,6,7.7|
0,7,8.5|
1,0,4.3|
1,1,1.7|
1,2,6.2|
1,3,6.5|
1,4,5.4|
1,5,2.1|
1,6,6.6|
1,7,0.97|
2,0,8.4|
2,1,2.9|
2,2,2.4|
2,3,5.7|
2,4,6.8|
2,5,3.5|
2,6,2.2|
2,7,0.88|
3,0,1.2|
3,1,7.3|
3,2,1.4|
3,3,0.55|
3,4,3.4|
3,5,3.7|
3,6,9.5|
3,7,7.5|
4,0,0.85|
4,1,9.9|
4,2,9.8|
4,3,9.4|
4,4,0.14|
4,5,1.6|
4,6,6.4|
4,7,0.24|
5,0,9.9|
5,1,4.4|
5,2,9.6|
5,3,6|
5,4,3.8|
5,5,0.06|
5,6,1.8|
5,7,5|
6,0,2.3|
6,1,6.7|
6,2,8.7|
6,3,4.6|
6,4,2.3|
6,5,0.51|
6,6,0.63|
6,7,1.5|
7,0,1.7|
7,1,9|
7,2,5.7|
7,3,1|
7,4,0.43|
7,5,0.36|
7,6,0.37|
7,7,9.4|
];
constraint_x3_x2=[
0,0,1.1|
0,1,2|
0,2,4.8|
0,3,0.66|
0,4,7|
0,5,9.9|
0,6,3.9|
0,7,4.3|
1,0,4.6|
1,1,0.78|
1,2,9.5|
1,3,0.21|
1,4,6.2|
1,5,9.7|
1,6,4.7|
1,7,3.5|
2,0,8.4|
2,1,9.9|
2,2,8|
2,3,3.1|
2,4,0.88|
2,5,0.58|
2,6,4.7|
2,7,3.9|
3,0,6.3|
3,1,8.7|
3,2,0.47|
3,3,2.4|
3,4,9.7|
3,5,3.1|
3,6,2.6|
3,7,1.4|
4,0,4.4|
4,1,5.7|
4,2,3.8|
4,3,9.5|
4,4,6.5|
4,5,4.9|
4,6,4.4|
4,7,7.7|
5,0,5.1|
5,1,0.36|
5,2,6.9|
5,3,6.3|
5,4,0.52|
5,5,5.7|
5,6,7.5|
5,7,4.9|
6,0,4.2|
6,1,4.7|
6,2,9.1|
6,3,1.5|
6,4,7.9|
6,5,3.8|
6,6,5.4|
6,7,7.5|
7,0,5.7|
7,1,1.8|
7,2,1.4|
7,3,3.6|
7,4,9.7|
7,5,2|
7,6,0.17|
7,7,9.4|
];
constraint_x4_x3=[
0,0,0.13|
0,1,8.8|
0,2,9|
0,3,9.3|
0,4,6.5|
0,5,6.7|
0,6,1.4|
0,7,2.4|
1,0,0.26|
1,1,2|
1,2,2|
1,3,5.8|
1,4,5|
1,5,7.5|
1,6,8.7|
1,7,9.2|
2,0,4.6|
2,1,0.046|
2,2,6.5|
2,3,7.4|
2,4,3.6|
2,5,9.1|
2,6,3.6|
2,7,5.8|
3,0,0.26|
3,1,4|
3,2,6.2|
3,3,10|
3,4,8|
3,5,9.9|
3,6,7.4|
3,7,7.3|
4,0,0.67|
4,1,2.3|
4,2,8.3|
4,3,1.9|
4,4,3.4|
4,5,7.2|
4,6,5|
4,7,2.1|
5,0,9.7|
5,1,4.9|
5,2,3.8|
5,3,9.8|
5,4,0.11|
5,5,4.1|
5,6,7.3|
5,7,2.2|
6,0,2.2|
6,1,4.7|
6,2,2.8|
6,3,7.7|
6,4,3.5|
6,5,0.96|
6,6,9|
6,7,6|
7,0,4.9|
7,1,4.3|
7,2,3.6|
7,3,1.1|
7,4,7.8|
7,5,4.3|
7,6,8.8|
7,7,8.1|
];
constraint_x5_x1=[
0,0,8.8|
0,1,2.4|
0,2,1.6|
0,3,1.7|
0,4,9.3|
0,5,4.9|
0,6,0.85|
0,7,7.3|
1,0,6.5|
1,1,7.5|
1,2,7.3|
1,3,4.1|
1,4,5.1|
1,5,8.4|
1,6,1.4|
1,7,8.4|
2,0,8.3|
2,1,0.48|
2,2,4.7|
2,3,9.2|
2,4,8.4|
2,5,9.2|
2,6,3.3|
2,7,8.1|
3,0,5.9|
3,1,0.99|
3,2,1.9|
3,3,2.8|
3,4,6.9|
3,5,2.1|
3,6,4.8|
3,7,3|
4,0,6.5|
4,1,1.8|
4,2,4.6|
4,3,5|
4,4,1.2|
4,5,3.6|
4,6,4.5|
4,7,4.1|
5,0,6.1|
5,1,9.2|
5,2,5.6|
5,3,4.3|
5,4,0.49|
5,5,9.4|
5,6,0.4|
5,7,1.6|
6,0,8.1|
6,1,2.1|
6,2,8|
6,3,3.9|
6,4,5.5|
6,5,4.5|
6,6,6.7|
6,7,1.6|
7,0,8.9|
7,1,0.27|
7,2,5.8|
7,3,6.1|
7,4,3.1|
7,5,0.51|
7,6,7.7|
7,7,0.91|
];
constraint_x6_x2=[
0,0,6.4|
0,1,7.1|
0,2,6.5|
0,3,2.3|
0,4,6.1|
0,5,3.9|
0,6,4.1|
0,7,9.4|
1,0,4.6|
1,1,6.9|
1,2,6.6|
1,3,9|
1,4,9.4|
1,5,9|
1,6,4.2|
1,7,6.7|
2,0,1.4|
2,1,2.1|
2,2,7.7|
2,3,6.1|
2,4,4.5|
2,5,9.7|
2,6,2.7|
2,7,2.4|
3,0,6|
3,1,5.9|
3,2,2.1|
3,3,8.7|
3,4,4.2|
3,5,7.3|
3,6,9.9|
3,7,9.3|
4,0,1.2|
4,1,9.5|
4,2,3.2|
4,3,2.5|
4,4,6.1|
4,5,5.1|
4,6,9.6|
4,7,1.2|
5,0,8.2|
5,1,6.9|
5,2,1.2|
5,3,1.2|
5,4,4.1|
5,5,6.6|
5,6,7.6|
5,7,5.7|
6,0,2|
6,1,2.4|
6,2,4.9|
6,3,7.5|
6,4,1.7|
6,5,6.1|
6,6,3.6|
6,7,8.3|
7,0,0.93|
7,1,5.2|
7,2,9|
7,3,3.2|
7,4,0.71|
7,5,6.9|
7,6,4.2|
7,7,5.3|
];
constraint_x7_x3=[
0,0,3.7|
0,1,2.6|
0,2,1.3|
0,3,8.1|
0,4,2.1|
0,5,8.7|
0,6,9.2|
0,7,6.8|
1,0,6.8|
1,1,7.2|
1,2,7.3|
1,3,9.1|
1,4,8.9|
1,5,2|
1,6,6.4|
1,7,2.1|
2,0,2.3|
2,1,5.8|
2,2,7.9|
2,3,7.3|
2,4,2.6|
2,5,2.6|
2,6,2.2|
2,7,9.6|
3,0,0.62|
3,1,1.9|
3,2,0.7|
3,3,4|
3,4,1.9|
3,5,8.3|
3,6,8.2|
3,7,4|
4,0,10|
4,1,0.33|
4,2,8.8|
4,3,4.3|
4,4,2.3|
4,5,2.9|
4,6,1.6|
4,7,6.6|
5,0,6.4|
5,1,4.9|
5,2,3.4|
5,3,4.6|
5,4,1.9|
5,5,0.9|
5,6,6.5|
5,7,4.4|
6,0,0.3|
6,1,0.67|
6,2,7.8|
6,3,1.5|
6,4,0.073|
6,5,5.5|
6,6,7.9|
6,7,9.3|
7,0,8.6|
7,1,9.9|
7,2,2.7|
7,3,1.4|
7,4,6.3|
7,5,3.7|
7,6,7.6|
7,7,7.1|
];
constraint_x8_x4=[
0,0,2.7|
0,1,6.8|
0,2,6.5|
0,3,2.4|
0,4,1.6|
0,5,6.5|
0,6,3|
0,7,3.4|
1,0,3.5|
1,1,4.4|
1,2,3.4|
1,3,6.2|
1,4,5.9|
1,5,0.94|
1,6,5|
1,7,8|
2,0,3.7|
2,1,3.5|
2,2,0.95|
2,3,9.9|
2,4,2.2|
2,5,6|
2,6,1.1|
2,7,5.7|
3,0,4.3|
3,1,4.3|
3,2,9.6|
3,3,6.8|
3,4,7.2|
3,5,9.1|
3,6,8.5|
3,7,3.7|
4,0,5.2|
4,1,1.7|
4,2,5.2|
4,3,7.8|
4,4,0.92|
4,5,3.1|
4,6,0.15|
4,7,1.7|
5,0,2|
5,1,9.8|
5,2,1.7|
5,3,5.7|
5,4,6.8|
5,5,0.055|
5,6,5.8|
5,7,8.9|
6,0,7.6|
6,1,8.8|
6,2,2.4|
6,3,9.3|
6,4,8.7|
6,5,8.3|
6,6,3.4|
6,7,5|
7,0,7.2|
7,1,1.2|
7,2,2.5|
7,3,2.9|
7,4,4|
7,5,3.2|
7,6,3.1|
7,7,3|
];
constraint_x9_x5=[
0,0,9.4|
0,1,2|
0,2,5.4|
0,3,5.5|
0,4,6.2|
0,5,7.8|
0,6,0.19|
0,7,9.4|
1,0,2.4|
1,1,9.9|
1,2,9.6|
1,3,0.82|
1,4,0.52|
1,5,7|
1,6,6.4|
1,7,4|
2,0,9.5|
2,1,4|
2,2,3.5|
2,3,8.8|
2,4,5.3|
2,5,0.48|
2,6,4.5|
2,7,7.4|
3,0,4.6|
3,1,4.2|
3,2,8.6|
3,3,2.7|
3,4,2.6|
3,5,3.8|
3,6,9.1|
3,7,6.6|
4,0,3.1|
4,1,3.3|
4,2,9.5|
4,3,4.9|
4,4,9.1|
4,5,5|
4,6,4.1|
4,7,7.6|
5,0,2.3|
5,1,4.5|
5,2,0.87|
5,3,1.1|
5,4,9|
5,5,1.4|
5,6,5.9|
5,7,9.8|
6,0,9.7|
6,1,7.8|
6,2,6.4|
6,3,0.64|
6,4,7.7|
6,5,1.5|
6,6,7.9|
6,7,9.5|
7,0,6.5|
7,1,4.3|
7,2,7.4|
7,3,2.6|
7,4,4.8|
7,5,5.7|
7,6,7.6|
7,7,9.7|
];
constraint_x10_x6=[
0,0,3.1|
0,1,1.8|
0,2,5.2|
0,3,1.7|
0,4,6.7|
0,5,7.7|
0,6,9|
0,7,9.8|
1,0,4.1|
1,1,8.5|
1,2,8.8|
1,3,8|
1,4,3.8|
1,5,5.3|
1,6,8.6|
1,7,10|
2,0,3.1|
2,1,9|
2,2,1.9|
2,3,0.9|
2,4,7.6|
2,5,1.7|
2,6,1.7|
2,7,4.1|
3,0,4.5|
3,1,0.091|
3,2,7.6|
3,3,6|
3,4,9.6|
3,5,9|
3,6,7.7|
3,7,6.7|
4,0,1.6|
4,1,1.6|
4,2,7.2|
4,3,1|
4,4,3.9|
4,5,7.7|
4,6,3.2|
4,7,3|
5,0,9.9|
5,1,7.1|
5,2,2.1|
5,3,9.4|
5,4,7.6|
5,5,1.3|
5,6,8.8|
5,7,1.1|
6,0,6.5|
6,1,4.1|
6,2,4.1|
6,3,4.9|
6,4,3.5|
6,5,8.4|
6,6,7.1|
6,7,0.89|
7,0,4.5|
7,1,3.4|
7,2,4.6|
7,3,6.3|
7,4,9.4|
7,5,4|
7,6,3.9|
7,7,7|
];
constraint_x11_x7=[
0,0,4|
0,1,0.11|
0,2,8.6|
0,3,1.1|
0,4,3.2|
0,5,2.3|
0,6,4.7|
0,7,1.7|
1,0,7.3|
1,1,4.9|
1,2,7.2|
1,3,3.8|
1,4,4.8|
1,5,4.5|
1,6,8.7|
1,7,7.3|
2,0,3.2|
2,1,0.28|
2,2,4.9|
2,3,3.9|
2,4,7.1|
2,5,8.5|
2,6,0.11|
2,7,5.4|
3,0,6.1|
3,1,4.4|
3,2,2.7|
3,3,2.7|
3,4,2|
3,5,6.2|
3,6,1.1|
3,7,3.7|
4,0,0.56|
4,1,6.1|
4,2,7.5|
4,3,0.79|
4,4,9.4|
4,5,6.4|
4,6,6.9|
4,7,9.3|
5,0,3.4|
5,1,7.7|
5,2,1.3|
5,3,1.5|
5,4,7.9|
5,5,7.2|
5,6,7.6|
5,7,3.1|
6,0,0.53|
6,1,3.4|
6,2,5.3|
6,3,9.3|
6,4,9.8|
6,5,5.5|
6,6,2.6|
6,7,3.5|
7,0,1.1|
7,1,0.55|
7,2,8.7|
7,3,6.4|
7,4,3.6|
7,5,0.75|
7,6,5.2|
7,7,0.77|
];
constraint_x12_x8=[
0,0,5.6|
0,1,5.4|
0,2,5|
0,3,2.4|
0,4,3.6|
0,5,4.6|
0,6,4.3|
0,7,3.8|
1,0,2.4|
1,1,2.6|
1,2,3.9|
1,3,0.92|
1,4,4.4|
1,5,5.1|
1,6,1.9|
1,7,0.5|
2,0,0.019|
2,1,7.3|
2,2,8.7|
2,3,2.1|
2,4,6|
2,5,8.1|
2,6,3.8|
2,7,6.5|
3,0,3.2|
3,1,5.5|
3,2,0.63|
3,3,3|
3,4,0.47|
3,5,0.99|
3,6,5.3|
3,7,1.3|
4,0,2.5|
4,1,7.6|
4,2,8.7|
4,3,1.7|
4,4,9|
4,5,8.3|
4,6,4.7|
4,7,9.7|
5,0,5|
5,1,3.4|
5,2,8|
5,3,2|
5,4,2|
5,5,1.9|
5,6,0.58|
5,7,4.4|
6,0,1.5|
6,1,4.2|
6,2,2|
6,3,8.7|
6,4,5.8|
6,5,1.1|
6,6,4.9|
6,7,1.3|
7,0,3.1|
7,1,4.3|
7,2,4.8|
7,3,0.7|
7,4,1.6|
7,5,1.3|
7,6,9.6|
7,7,3.1|
];
constraint_x13_x9=[
0,0,2|
0,1,5.3|
0,2,1.1|
0,3,5.3|
0,4,5.9|
0,5,2.1|
0,6,4.2|
0,7,1.8|
1,0,3|
1,1,6.9|
1,2,2.5|
1,3,8.8|
1,4,8.9|
1,5,4.6|
1,6,1.9|
1,7,3.6|
2,0,3.5|
2,1,2.6|
2,2,8.8|
2,3,6.7|
2,4,9.7|
2,5,0.9|
2,6,5.9|
2,7,4.9|
3,0,2.4|
3,1,4.8|
3,2,0.19|
3,3,5.5|
3,4,5.8|
3,5,0.61|
3,6,5.4|
3,7,0.44|
4,0,1.8|
4,1,9.6|
4,2,6.6|
4,3,7.6|
4,4,2.1|
4,5,1.3|
4,6,4.6|
4,7,2.6|
5,0,0.26|
5,1,5.3|
5,2,1.7|
5,3,1.2|
5,4,9.7|
5,5,6.9|
5,6,0.51|
5,7,9.4|
6,0,1.2|
6,1,5.7|
6,2,4.2|
6,3,1.8|
6,4,1.1|
6,5,2.9|
6,6,7.4|
6,7,6.7|
7,0,5.1|
7,1,0.11|
7,2,0.3|
7,3,3.9|
7,4,9.1|
7,5,8.7|
7,6,2.1|
7,7,7.8|
];
constraint_x14_x10=[
0,0,2|
0,1,6.1|
0,2,9.2|
0,3,2.2|
0,4,1.7|
0,5,0.62|
0,6,2.5|
0,7,8.8|
1,0,2.8|
1,1,8.9|
1,2,1.3|
1,3,2.2|
1,4,5.2|
1,5,7.3|
1,6,2.1|
1,7,6|
2,0,3.2|
2,1,0.73|
2,2,7.1|
2,3,1.8|
2,4,8.5|
2,5,7.4|
2,6,4.8|
2,7,6.6|
3,0,3.9|
3,1,1.8|
3,2,1.5|
3,3,4.5|
3,4,0.62|
3,5,9.9|
3,6,5|
3,7,2.3|
4,0,1.2|
4,1,5.8|
4,2,8.1|
4,3,7.1|
4,4,3.2|
4,5,0.48|
4,6,7.6|
4,7,5.3|
5,0,1.5|
5,1,6.9|
5,2,1.3|
5,3,4.8|
5,4,8|
5,5,1.7|
5,6,6.3|
5,7,7.3|
6,0,3|
6,1,8.6|
6,2,9.8|
6,3,5.2|
6,4,9.6|
6,5,2.1|
6,6,4.4|
6,7,3.8|
7,0,9.9|
7,1,5.8|
7,2,6.7|
7,3,4.2|
7,4,4.4|
7,5,9.5|
7,6,2.8|
7,7,0.8|
];
constraint_x1_y1=[
0,0,5|
0,1,2.6|
0,2,6.9|
0,3,3.5|
0,4,2.4|
0,5,0.53|
0,6,6.2|
0,7,7.4|
1,0,1.2|
1,1,8.7|
1,2,5.8|
1,3,4.4|
1,4,6.6|
1,5,6.8|
1,6,1.3|
1,7,9.2|
2,0,1.9|
2,1,6.4|
2,2,0.93|
2,3,4.5|
2,4,2.1|
2,5,9.9|
2,6,6|
2,7,9|
3,0,4.9|
3,1,3.3|
3,2,3.1|
3,3,1.4|
3,4,0.17|
3,5,1.4|
3,6,3.6|
3,7,8.2|
4,0,1.1|
4,1,9.7|
4,2,5.3|
4,3,7.8|
4,4,2.4|
4,5,2.9|
4,6,4.9|
4,7,7.4|
5,0,1.8|
5,1,8.2|
5,2,6.3|
5,3,5.3|
5,4,2.3|
5,5,2.2|
5,6,6.4|
5,7,6.7|
6,0,0.97|
6,1,8.4|
6,2,5.7|
6,3,9.8|
6,4,3.2|
6,5,8.7|
6,6,4.4|
6,7,7|
7,0,9.4|
7,1,3|
7,2,5.9|
7,3,0.71|
7,4,8.3|
7,5,4.3|
7,6,8.3|
7,7,8.8|
];
constraint_x2_y2=[
0,0,3.4|
0,1,9.3|
0,2,6.4|
0,3,5|
0,4,7.4|
0,5,5|
0,6,2.1|
0,7,2.7|
1,0,0.082|
1,1,6|
1,2,8.3|
1,3,9|
1,4,8.7|
1,5,3.6|
1,6,5.4|
1,7,7|
2,0,9.1|
2,1,4.9|
2,2,5.9|
2,3,1.7|
2,4,6.3|
2,5,9.8|
2,6,6.8|
2,7,3.4|
3,0,8.5|
3,1,7.3|
3,2,5.9|
3,3,0.2|
3,4,2.1|
3,5,4.2|
3,6,1.7|
3,7,5|
4,0,0.71|
4,1,8.8|
4,2,1.1|
4,3,6.7|
4,4,7.7|
4,5,7.8|
4,6,7.7|
4,7,7.6|
5,0,7.8|
5,1,2.7|
5,2,8.6|
5,3,2.1|
5,4,7.2|
5,5,3.8|
5,6,8.6|
5,7,0.63|
6,0,8.4|
6,1,1.1|
6,2,9.3|
6,3,3.7|
6,4,3.4|
6,5,0.23|
6,6,5.5|
6,7,10|
7,0,1.6|
7,1,1.1|
7,2,4.7|
7,3,7.1|
7,4,1.8|
7,5,7.4|
7,6,5.2|
7,7,1.6|
];
constraint_x3_y3=[
0,0,1|
0,1,5.3|
0,2,8.7|
0,3,0.27|
0,4,4.5|
0,5,1.6|
0,6,0.92|
0,7,1.8|
1,0,2.4|
1,1,3.9|
1,2,8.4|
1,3,9.1|
1,4,3.7|
1,5,0.38|
1,6,6.6|
1,7,0.055|
2,0,5.2|
2,1,2.9|
2,2,5.7|
2,3,7.2|
2,4,9.6|
2,5,2.9|
2,6,6.7|
2,7,7.8|
3,0,2.5|
3,1,5.1|
3,2,4.9|
3,3,9.8|
3,4,4.7|
3,5,5.2|
3,6,6|
3,7,1.1|
4,0,0.028|
4,1,6.5|
4,2,0.79|
4,3,1.5|
4,4,5.1|
4,5,7.2|
4,6,9.7|
4,7,7.4|
5,0,5.2|
5,1,7.6|
5,2,1.3|
5,3,7.8|
5,4,9.2|
5,5,4|
5,6,3.8|
5,7,0.093|
6,0,8.6|
6,1,8.3|
6,2,2.2|
6,3,1.9|
6,4,7.8|
6,5,9.2|
6,6,0.92|
6,7,7.6|
7,0,3.9|
7,1,4.4|
7,2,7.4|
7,3,4.3|
7,4,6.2|
7,5,5.7|
7,6,0.49|
7,7,4.6|
];
constraint_x4_y4=[
0,0,0.73|
0,1,5.9|
0,2,1.1|
0,3,7.7|
0,4,6.6|
0,5,8.3|
0,6,9|
0,7,6.5|
1,0,3|
1,1,7.7|
1,2,1.1|
1,3,7.2|
1,4,3.8|
1,5,2.6|
1,6,9.1|
1,7,5|
2,0,6.8|
2,1,2.1|
2,2,7.1|
2,3,8.5|
2,4,4.6|
2,5,2.9|
2,6,9.7|
2,7,0.15|
3,0,8.5|
3,1,9.6|
3,2,2.7|
3,3,2.6|
3,4,2.1|
3,5,0.9|
3,6,0.21|
3,7,9.1|
4,0,1|
4,1,6.1|
4,2,4.3|
4,3,7.9|
4,4,9.4|
4,5,6.2|
4,6,8.9|
4,7,1.6|
5,0,5.6|
5,1,8.8|
5,2,0.79|
5,3,0.43|
5,4,2.7|
5,5,10|
5,6,2.2|
5,7,2.7|
6,0,6.2|
6,1,7.1|
6,2,3.6|
6,3,1.6|
6,4,8.2|
6,5,8|
6,6,0.63|
6,7,5.3|
7,0,5.7|
7,1,2.8|
7,2,1.6|
7,3,9.7|
7,4,0.71|
7,5,3.1|
7,6,9.5|
7,7,0.06|
];
constraint_x5_y5=[
0,0,4.6|
0,1,7.4|
0,2,8.6|
0,3,9.1|
0,4,4.4|
0,5,9.3|
0,6,0.9|
0,7,6.8|
1,0,2.1|
1,1,8.9|
1,2,4.1|
1,3,9.3|
1,4,5.8|
1,5,9.4|
1,6,3.1|
1,7,1.2|
2,0,0.41|
2,1,4.5|
2,2,1.1|
2,3,9.8|
2,4,2.3|
2,5,3.6|
2,6,6.7|
2,7,7|
3,0,5.1|
3,1,0.4|
3,2,5.6|
3,3,4.4|
3,4,6.1|
3,5,5.1|
3,6,0.063|
3,7,6.9|
4,0,3|
4,1,9.8|
4,2,0.68|
4,3,0.28|
4,4,9|
4,5,2.9|
4,6,5.6|
4,7,8.4|
5,0,9.3|
5,1,9.9|
5,2,3.5|
5,3,6.5|
5,4,0.54|
5,5,7.1|
5,6,6.6|
5,7,6.3|
6,0,3.7|
6,1,0.63|
6,2,0.75|
6,3,0.64|
6,4,3.3|
6,5,0.82|
6,6,5.7|
6,7,2.8|
7,0,2.6|
7,1,7.6|
7,2,2.8|
7,3,4.6|
7,4,9.3|
7,5,9.9|
7,6,9.1|
7,7,1.8|
];
constraint_x6_y6=[
0,0,0.66|
0,1,6.3|
0,2,5.6|
0,3,0.28|
0,4,7.3|
0,5,5.4|
0,6,7.6|
0,7,6.2|
1,0,1.4|
1,1,5.3|
1,2,0.97|
1,3,0.63|
1,4,1.7|
1,5,1.5|
1,6,6.8|
1,7,4.2|
2,0,6.4|
2,1,8.8|
2,2,2.9|
2,3,0.85|
2,4,5.1|
2,5,1.5|
2,6,2.4|
2,7,8.2|
3,0,8|
3,1,4.2|
3,2,9.6|
3,3,1|
3,4,6.5|
3,5,0.36|
3,6,9.8|
3,7,6|
4,0,0.58|
4,1,4.2|
4,2,3.4|
4,3,0.4|
4,4,1.5|
4,5,1.9|
4,6,8.8|
4,7,4.5|
5,0,5.1|
5,1,9.6|
5,2,6.5|
5,3,0.16|
5,4,1.8|
5,5,0.98|
5,6,2.9|
5,7,1.2|
6,0,4.3|
6,1,8.1|
6,2,0.11|
6,3,8.9|
6,4,2.2|
6,5,7.5|
6,6,2.4|
6,7,9.3|
7,0,0.83|
7,1,9.6|
7,2,0.94|
7,3,1.4|
7,4,6.9|
7,5,7.1|
7,6,3.2|
7,7,9.3|
];
initial_distribution_y1=[0.2,0.19,0.046,0.13,0.058,0.14,0.12,0.12];
initial_distribution_y2=[0.018,0.17,0.11,0.17,0.18,0.085,0.081,0.2];
initial_distribution_y3=[0.1,0.051,0.17,0.1,0.25,0.057,0.19,0.077];
initial_distribution_y4=[0.03,0.22,0.2,0.09,0.057,0.095,0.18,0.13];
initial_distribution_y5=[0.21,0.12,0.1,0.22,0.088,0.035,0.081,0.14];
initial_distribution_y6=[0.14,0.22,0.037,0.18,0.074,0.15,0.085,0.11];
transition_y1=[
0.08,0.15,0.14,0.14,0.15,0.15,0.1,0.089|
0.021,0.19,0.12,0.14,0.012,0.21,0.098,0.21|
0.17,0.13,0.021,0.19,0.11,0.2,0.18,0.0049|
0.2,0.027,0.05,0.15,0.093,0.3,0.014,0.17|
0.21,0.053,0.05,0.18,0.042,0.014,0.24,0.21|
0.19,0.14,0.086,0.017,0.097,0.034,0.21,0.22|
0.18,0.044,0.21,0.047,0.031,0.25,0.041,0.19|
0.032,0.19,0.18,0.053,0.14,0.18,0.085,0.14|
];
transition_y2=[
0.12,0.14,0.17,0.17,0.14,0.029,0.14,0.096|
0.1,0.17,0.17,0.091,0.16,0.071,0.16,0.085|
0.19,0.27,0.0068,0.1,0.026,0.015,0.27,0.12|
0.022,0.0056,0.09,0.16,0.21,0.26,0.22,0.032|
0.18,0.085,0.13,0.16,0.16,0.041,0.14,0.1|
0.2,0.27,0.052,0.069,0.034,0.18,0.0081,0.19|
0.13,0.18,0.25,0.2,0.13,0.0043,0.059,0.059|
0.13,0.1,0.15,0.13,0.092,0.14,0.13,0.13|
];
transition_y3=[
0.14,0.13,0.22,0.11,0.061,0.029,0.21,0.11|
0.043,0.23,0.094,0.095,0.23,0.072,0.044,0.19|
0.048,0.22,0.18,0.0041,0.027,0.18,0.17,0.17|
0.12,0.16,0.014,0.26,0.14,0.024,0.18,0.11|
0.15,0.03,0.19,0.16,0.15,0.0049,0.14,0.18|
0.12,0.094,0.16,0.13,0.1,0.18,0.077,0.13|
0.12,0.13,0.057,0.16,0.17,0.11,0.12,0.14|
0.21,0.16,0.022,0.038,0.042,0.19,0.19,0.15|
];
transition_y4=[
0.052,0.17,0.14,0.18,0.1,0.19,0.16,0.0098|
0.18,0.12,0.094,0.16,0.022,0.17,0.18,0.069|
0.023,0.18,0.087,0.14,0.067,0.22,0.22,0.056|
0.028,0.017,0.19,0.15,0.032,0.21,0.19,0.18|
0.11,0.14,0.16,0.23,0.08,0.048,0.032,0.2|
0.26,0.058,0.076,0.016,0.15,0.072,0.11,0.26|
0.15,0.16,0.19,0.1,0.12,0.041,0.15,0.094|
0.25,0.051,0.0076,0.083,0.072,0.27,0.26,0.014|
];
transition_y5=[
0.02,0.054,0.15,0.19,0.16,0.15,0.16,0.11|
0.14,0.14,0.11,0.17,0.18,0.0023,0.17,0.085|
0.067,0.21,0.17,0.21,0.057,0.047,0.22,0.022|
0.14,0.012,0.047,0.13,0.28,0.061,0.2,0.13|
0.17,0.077,0.022,0.096,0.14,0.16,0.18,0.16|
0.16,0.18,0.068,0.16,0.022,0.13,0.22,0.064|
0.038,0.14,0.012,0.21,0.051,0.16,0.19,0.21|
0.092,0.11,0.1,0.11,0.17,0.21,0.17,0.038|
];
transition_y6=[
0.01,0.18,0.018,0.044,0.16,0.2,0.18,0.2|
0.17,0.17,0.16,0.0084,0.094,0.18,0.085,0.13|
0.16,0.18,0.15,0.025,0.07,0.18,0.14,0.094|
0.15,0.2,0.2,0.18,0.15,0.035,0.0049,0.073|
0.057,0.21,0.16,0.12,0.22,0.11,0.056,0.074|
0.1,0.051,0.077,0.23,0.06,0.21,0.047,0.22|
0.28,0.28,0.028,0.15,0.055,0.068,0.0074,0.13|
0.15,0.033,0.16,0.14,0.087,0.089,0.098,0.24|
];
